c *********************************
c * Circuit generated by BenCGen
c *
c * Parity_382
c *
c * Ports with 1 gate(s): 1
c * Ports with 2 gate(s): 382
c * Total gates: 383
c *********************************
p cnf 765 1529
1 385 0
-1 -385 0
1 -384 0
385 -384 0
-1 -385 384 0
1 2 -386 0
-1 2 386 0
1 -2 386 0
-1 -2 -386 0
3 4 -387 0
-3 4 387 0
3 -4 387 0
-3 -4 -387 0
5 6 -388 0
-5 6 388 0
5 -6 388 0
-5 -6 -388 0
7 8 -389 0
-7 8 389 0
7 -8 389 0
-7 -8 -389 0
9 10 -390 0
-9 10 390 0
9 -10 390 0
-9 -10 -390 0
11 12 -391 0
-11 12 391 0
11 -12 391 0
-11 -12 -391 0
13 14 -392 0
-13 14 392 0
13 -14 392 0
-13 -14 -392 0
15 16 -393 0
-15 16 393 0
15 -16 393 0
-15 -16 -393 0
17 18 -394 0
-17 18 394 0
17 -18 394 0
-17 -18 -394 0
19 20 -395 0
-19 20 395 0
19 -20 395 0
-19 -20 -395 0
21 22 -396 0
-21 22 396 0
21 -22 396 0
-21 -22 -396 0
23 24 -397 0
-23 24 397 0
23 -24 397 0
-23 -24 -397 0
25 26 -398 0
-25 26 398 0
25 -26 398 0
-25 -26 -398 0
27 28 -399 0
-27 28 399 0
27 -28 399 0
-27 -28 -399 0
29 30 -400 0
-29 30 400 0
29 -30 400 0
-29 -30 -400 0
31 32 -401 0
-31 32 401 0
31 -32 401 0
-31 -32 -401 0
33 34 -402 0
-33 34 402 0
33 -34 402 0
-33 -34 -402 0
35 36 -403 0
-35 36 403 0
35 -36 403 0
-35 -36 -403 0
37 38 -404 0
-37 38 404 0
37 -38 404 0
-37 -38 -404 0
39 40 -405 0
-39 40 405 0
39 -40 405 0
-39 -40 -405 0
41 42 -406 0
-41 42 406 0
41 -42 406 0
-41 -42 -406 0
43 44 -407 0
-43 44 407 0
43 -44 407 0
-43 -44 -407 0
45 46 -408 0
-45 46 408 0
45 -46 408 0
-45 -46 -408 0
47 48 -409 0
-47 48 409 0
47 -48 409 0
-47 -48 -409 0
49 50 -410 0
-49 50 410 0
49 -50 410 0
-49 -50 -410 0
51 52 -411 0
-51 52 411 0
51 -52 411 0
-51 -52 -411 0
53 54 -412 0
-53 54 412 0
53 -54 412 0
-53 -54 -412 0
55 56 -413 0
-55 56 413 0
55 -56 413 0
-55 -56 -413 0
57 58 -414 0
-57 58 414 0
57 -58 414 0
-57 -58 -414 0
59 60 -415 0
-59 60 415 0
59 -60 415 0
-59 -60 -415 0
61 62 -416 0
-61 62 416 0
61 -62 416 0
-61 -62 -416 0
63 64 -417 0
-63 64 417 0
63 -64 417 0
-63 -64 -417 0
65 66 -418 0
-65 66 418 0
65 -66 418 0
-65 -66 -418 0
67 68 -419 0
-67 68 419 0
67 -68 419 0
-67 -68 -419 0
69 70 -420 0
-69 70 420 0
69 -70 420 0
-69 -70 -420 0
71 72 -421 0
-71 72 421 0
71 -72 421 0
-71 -72 -421 0
73 74 -422 0
-73 74 422 0
73 -74 422 0
-73 -74 -422 0
75 76 -423 0
-75 76 423 0
75 -76 423 0
-75 -76 -423 0
77 78 -424 0
-77 78 424 0
77 -78 424 0
-77 -78 -424 0
79 80 -425 0
-79 80 425 0
79 -80 425 0
-79 -80 -425 0
81 82 -426 0
-81 82 426 0
81 -82 426 0
-81 -82 -426 0
83 84 -427 0
-83 84 427 0
83 -84 427 0
-83 -84 -427 0
85 86 -428 0
-85 86 428 0
85 -86 428 0
-85 -86 -428 0
87 88 -429 0
-87 88 429 0
87 -88 429 0
-87 -88 -429 0
89 90 -430 0
-89 90 430 0
89 -90 430 0
-89 -90 -430 0
91 92 -431 0
-91 92 431 0
91 -92 431 0
-91 -92 -431 0
93 94 -432 0
-93 94 432 0
93 -94 432 0
-93 -94 -432 0
95 96 -433 0
-95 96 433 0
95 -96 433 0
-95 -96 -433 0
97 98 -434 0
-97 98 434 0
97 -98 434 0
-97 -98 -434 0
99 100 -435 0
-99 100 435 0
99 -100 435 0
-99 -100 -435 0
101 102 -436 0
-101 102 436 0
101 -102 436 0
-101 -102 -436 0
103 104 -437 0
-103 104 437 0
103 -104 437 0
-103 -104 -437 0
105 106 -438 0
-105 106 438 0
105 -106 438 0
-105 -106 -438 0
107 108 -439 0
-107 108 439 0
107 -108 439 0
-107 -108 -439 0
109 110 -440 0
-109 110 440 0
109 -110 440 0
-109 -110 -440 0
111 112 -441 0
-111 112 441 0
111 -112 441 0
-111 -112 -441 0
113 114 -442 0
-113 114 442 0
113 -114 442 0
-113 -114 -442 0
115 116 -443 0
-115 116 443 0
115 -116 443 0
-115 -116 -443 0
117 118 -444 0
-117 118 444 0
117 -118 444 0
-117 -118 -444 0
119 120 -445 0
-119 120 445 0
119 -120 445 0
-119 -120 -445 0
121 122 -446 0
-121 122 446 0
121 -122 446 0
-121 -122 -446 0
123 124 -447 0
-123 124 447 0
123 -124 447 0
-123 -124 -447 0
125 126 -448 0
-125 126 448 0
125 -126 448 0
-125 -126 -448 0
127 128 -449 0
-127 128 449 0
127 -128 449 0
-127 -128 -449 0
129 130 -450 0
-129 130 450 0
129 -130 450 0
-129 -130 -450 0
131 132 -451 0
-131 132 451 0
131 -132 451 0
-131 -132 -451 0
133 134 -452 0
-133 134 452 0
133 -134 452 0
-133 -134 -452 0
135 136 -453 0
-135 136 453 0
135 -136 453 0
-135 -136 -453 0
137 138 -454 0
-137 138 454 0
137 -138 454 0
-137 -138 -454 0
139 140 -455 0
-139 140 455 0
139 -140 455 0
-139 -140 -455 0
141 142 -456 0
-141 142 456 0
141 -142 456 0
-141 -142 -456 0
143 144 -457 0
-143 144 457 0
143 -144 457 0
-143 -144 -457 0
145 146 -458 0
-145 146 458 0
145 -146 458 0
-145 -146 -458 0
147 148 -459 0
-147 148 459 0
147 -148 459 0
-147 -148 -459 0
149 150 -460 0
-149 150 460 0
149 -150 460 0
-149 -150 -460 0
151 152 -461 0
-151 152 461 0
151 -152 461 0
-151 -152 -461 0
153 154 -462 0
-153 154 462 0
153 -154 462 0
-153 -154 -462 0
155 156 -463 0
-155 156 463 0
155 -156 463 0
-155 -156 -463 0
157 158 -464 0
-157 158 464 0
157 -158 464 0
-157 -158 -464 0
159 160 -465 0
-159 160 465 0
159 -160 465 0
-159 -160 -465 0
161 162 -466 0
-161 162 466 0
161 -162 466 0
-161 -162 -466 0
163 164 -467 0
-163 164 467 0
163 -164 467 0
-163 -164 -467 0
165 166 -468 0
-165 166 468 0
165 -166 468 0
-165 -166 -468 0
167 168 -469 0
-167 168 469 0
167 -168 469 0
-167 -168 -469 0
169 170 -470 0
-169 170 470 0
169 -170 470 0
-169 -170 -470 0
171 172 -471 0
-171 172 471 0
171 -172 471 0
-171 -172 -471 0
173 174 -472 0
-173 174 472 0
173 -174 472 0
-173 -174 -472 0
175 176 -473 0
-175 176 473 0
175 -176 473 0
-175 -176 -473 0
177 178 -474 0
-177 178 474 0
177 -178 474 0
-177 -178 -474 0
179 180 -475 0
-179 180 475 0
179 -180 475 0
-179 -180 -475 0
181 182 -476 0
-181 182 476 0
181 -182 476 0
-181 -182 -476 0
183 184 -477 0
-183 184 477 0
183 -184 477 0
-183 -184 -477 0
185 186 -478 0
-185 186 478 0
185 -186 478 0
-185 -186 -478 0
187 188 -479 0
-187 188 479 0
187 -188 479 0
-187 -188 -479 0
189 190 -480 0
-189 190 480 0
189 -190 480 0
-189 -190 -480 0
191 192 -481 0
-191 192 481 0
191 -192 481 0
-191 -192 -481 0
193 194 -482 0
-193 194 482 0
193 -194 482 0
-193 -194 -482 0
195 196 -483 0
-195 196 483 0
195 -196 483 0
-195 -196 -483 0
197 198 -484 0
-197 198 484 0
197 -198 484 0
-197 -198 -484 0
199 200 -485 0
-199 200 485 0
199 -200 485 0
-199 -200 -485 0
201 202 -486 0
-201 202 486 0
201 -202 486 0
-201 -202 -486 0
203 204 -487 0
-203 204 487 0
203 -204 487 0
-203 -204 -487 0
205 206 -488 0
-205 206 488 0
205 -206 488 0
-205 -206 -488 0
207 208 -489 0
-207 208 489 0
207 -208 489 0
-207 -208 -489 0
209 210 -490 0
-209 210 490 0
209 -210 490 0
-209 -210 -490 0
211 212 -491 0
-211 212 491 0
211 -212 491 0
-211 -212 -491 0
213 214 -492 0
-213 214 492 0
213 -214 492 0
-213 -214 -492 0
215 216 -493 0
-215 216 493 0
215 -216 493 0
-215 -216 -493 0
217 218 -494 0
-217 218 494 0
217 -218 494 0
-217 -218 -494 0
219 220 -495 0
-219 220 495 0
219 -220 495 0
-219 -220 -495 0
221 222 -496 0
-221 222 496 0
221 -222 496 0
-221 -222 -496 0
223 224 -497 0
-223 224 497 0
223 -224 497 0
-223 -224 -497 0
225 226 -498 0
-225 226 498 0
225 -226 498 0
-225 -226 -498 0
227 228 -499 0
-227 228 499 0
227 -228 499 0
-227 -228 -499 0
229 230 -500 0
-229 230 500 0
229 -230 500 0
-229 -230 -500 0
231 232 -501 0
-231 232 501 0
231 -232 501 0
-231 -232 -501 0
233 234 -502 0
-233 234 502 0
233 -234 502 0
-233 -234 -502 0
235 236 -503 0
-235 236 503 0
235 -236 503 0
-235 -236 -503 0
237 238 -504 0
-237 238 504 0
237 -238 504 0
-237 -238 -504 0
239 240 -505 0
-239 240 505 0
239 -240 505 0
-239 -240 -505 0
241 242 -506 0
-241 242 506 0
241 -242 506 0
-241 -242 -506 0
243 244 -507 0
-243 244 507 0
243 -244 507 0
-243 -244 -507 0
245 246 -508 0
-245 246 508 0
245 -246 508 0
-245 -246 -508 0
247 248 -509 0
-247 248 509 0
247 -248 509 0
-247 -248 -509 0
249 250 -510 0
-249 250 510 0
249 -250 510 0
-249 -250 -510 0
251 252 -511 0
-251 252 511 0
251 -252 511 0
-251 -252 -511 0
253 254 -512 0
-253 254 512 0
253 -254 512 0
-253 -254 -512 0
255 256 -513 0
-255 256 513 0
255 -256 513 0
-255 -256 -513 0
257 258 -514 0
-257 258 514 0
257 -258 514 0
-257 -258 -514 0
259 260 -515 0
-259 260 515 0
259 -260 515 0
-259 -260 -515 0
261 262 -516 0
-261 262 516 0
261 -262 516 0
-261 -262 -516 0
263 264 -517 0
-263 264 517 0
263 -264 517 0
-263 -264 -517 0
265 266 -518 0
-265 266 518 0
265 -266 518 0
-265 -266 -518 0
267 268 -519 0
-267 268 519 0
267 -268 519 0
-267 -268 -519 0
269 270 -520 0
-269 270 520 0
269 -270 520 0
-269 -270 -520 0
271 272 -521 0
-271 272 521 0
271 -272 521 0
-271 -272 -521 0
273 274 -522 0
-273 274 522 0
273 -274 522 0
-273 -274 -522 0
275 276 -523 0
-275 276 523 0
275 -276 523 0
-275 -276 -523 0
277 278 -524 0
-277 278 524 0
277 -278 524 0
-277 -278 -524 0
279 280 -525 0
-279 280 525 0
279 -280 525 0
-279 -280 -525 0
281 282 -526 0
-281 282 526 0
281 -282 526 0
-281 -282 -526 0
283 284 -527 0
-283 284 527 0
283 -284 527 0
-283 -284 -527 0
285 286 -528 0
-285 286 528 0
285 -286 528 0
-285 -286 -528 0
287 288 -529 0
-287 288 529 0
287 -288 529 0
-287 -288 -529 0
289 290 -530 0
-289 290 530 0
289 -290 530 0
-289 -290 -530 0
291 292 -531 0
-291 292 531 0
291 -292 531 0
-291 -292 -531 0
293 294 -532 0
-293 294 532 0
293 -294 532 0
-293 -294 -532 0
295 296 -533 0
-295 296 533 0
295 -296 533 0
-295 -296 -533 0
297 298 -534 0
-297 298 534 0
297 -298 534 0
-297 -298 -534 0
299 300 -535 0
-299 300 535 0
299 -300 535 0
-299 -300 -535 0
301 302 -536 0
-301 302 536 0
301 -302 536 0
-301 -302 -536 0
303 304 -537 0
-303 304 537 0
303 -304 537 0
-303 -304 -537 0
305 306 -538 0
-305 306 538 0
305 -306 538 0
-305 -306 -538 0
307 308 -539 0
-307 308 539 0
307 -308 539 0
-307 -308 -539 0
309 310 -540 0
-309 310 540 0
309 -310 540 0
-309 -310 -540 0
311 312 -541 0
-311 312 541 0
311 -312 541 0
-311 -312 -541 0
313 314 -542 0
-313 314 542 0
313 -314 542 0
-313 -314 -542 0
315 316 -543 0
-315 316 543 0
315 -316 543 0
-315 -316 -543 0
317 318 -544 0
-317 318 544 0
317 -318 544 0
-317 -318 -544 0
319 320 -545 0
-319 320 545 0
319 -320 545 0
-319 -320 -545 0
321 322 -546 0
-321 322 546 0
321 -322 546 0
-321 -322 -546 0
323 324 -547 0
-323 324 547 0
323 -324 547 0
-323 -324 -547 0
325 326 -548 0
-325 326 548 0
325 -326 548 0
-325 -326 -548 0
327 328 -549 0
-327 328 549 0
327 -328 549 0
-327 -328 -549 0
329 330 -550 0
-329 330 550 0
329 -330 550 0
-329 -330 -550 0
331 332 -551 0
-331 332 551 0
331 -332 551 0
-331 -332 -551 0
333 334 -552 0
-333 334 552 0
333 -334 552 0
-333 -334 -552 0
335 336 -553 0
-335 336 553 0
335 -336 553 0
-335 -336 -553 0
337 338 -554 0
-337 338 554 0
337 -338 554 0
-337 -338 -554 0
339 340 -555 0
-339 340 555 0
339 -340 555 0
-339 -340 -555 0
341 342 -556 0
-341 342 556 0
341 -342 556 0
-341 -342 -556 0
343 344 -557 0
-343 344 557 0
343 -344 557 0
-343 -344 -557 0
345 346 -558 0
-345 346 558 0
345 -346 558 0
-345 -346 -558 0
347 348 -559 0
-347 348 559 0
347 -348 559 0
-347 -348 -559 0
349 350 -560 0
-349 350 560 0
349 -350 560 0
-349 -350 -560 0
351 352 -561 0
-351 352 561 0
351 -352 561 0
-351 -352 -561 0
353 354 -562 0
-353 354 562 0
353 -354 562 0
-353 -354 -562 0
355 356 -563 0
-355 356 563 0
355 -356 563 0
-355 -356 -563 0
357 358 -564 0
-357 358 564 0
357 -358 564 0
-357 -358 -564 0
359 360 -565 0
-359 360 565 0
359 -360 565 0
-359 -360 -565 0
361 362 -566 0
-361 362 566 0
361 -362 566 0
-361 -362 -566 0
363 364 -567 0
-363 364 567 0
363 -364 567 0
-363 -364 -567 0
365 366 -568 0
-365 366 568 0
365 -366 568 0
-365 -366 -568 0
367 368 -569 0
-367 368 569 0
367 -368 569 0
-367 -368 -569 0
369 370 -570 0
-369 370 570 0
369 -370 570 0
-369 -370 -570 0
371 372 -571 0
-371 372 571 0
371 -372 571 0
-371 -372 -571 0
373 374 -572 0
-373 374 572 0
373 -374 572 0
-373 -374 -572 0
375 376 -573 0
-375 376 573 0
375 -376 573 0
-375 -376 -573 0
377 378 -574 0
-377 378 574 0
377 -378 574 0
-377 -378 -574 0
379 380 -575 0
-379 380 575 0
379 -380 575 0
-379 -380 -575 0
381 382 -576 0
-381 382 576 0
381 -382 576 0
-381 -382 -576 0
386 387 -577 0
-386 387 577 0
386 -387 577 0
-386 -387 -577 0
388 389 -578 0
-388 389 578 0
388 -389 578 0
-388 -389 -578 0
390 391 -579 0
-390 391 579 0
390 -391 579 0
-390 -391 -579 0
392 393 -580 0
-392 393 580 0
392 -393 580 0
-392 -393 -580 0
394 395 -581 0
-394 395 581 0
394 -395 581 0
-394 -395 -581 0
396 397 -582 0
-396 397 582 0
396 -397 582 0
-396 -397 -582 0
398 399 -583 0
-398 399 583 0
398 -399 583 0
-398 -399 -583 0
400 401 -584 0
-400 401 584 0
400 -401 584 0
-400 -401 -584 0
402 403 -585 0
-402 403 585 0
402 -403 585 0
-402 -403 -585 0
404 405 -586 0
-404 405 586 0
404 -405 586 0
-404 -405 -586 0
406 407 -587 0
-406 407 587 0
406 -407 587 0
-406 -407 -587 0
408 409 -588 0
-408 409 588 0
408 -409 588 0
-408 -409 -588 0
410 411 -589 0
-410 411 589 0
410 -411 589 0
-410 -411 -589 0
412 413 -590 0
-412 413 590 0
412 -413 590 0
-412 -413 -590 0
414 415 -591 0
-414 415 591 0
414 -415 591 0
-414 -415 -591 0
416 417 -592 0
-416 417 592 0
416 -417 592 0
-416 -417 -592 0
418 419 -593 0
-418 419 593 0
418 -419 593 0
-418 -419 -593 0
420 421 -594 0
-420 421 594 0
420 -421 594 0
-420 -421 -594 0
422 423 -595 0
-422 423 595 0
422 -423 595 0
-422 -423 -595 0
424 425 -596 0
-424 425 596 0
424 -425 596 0
-424 -425 -596 0
426 427 -597 0
-426 427 597 0
426 -427 597 0
-426 -427 -597 0
428 429 -598 0
-428 429 598 0
428 -429 598 0
-428 -429 -598 0
430 431 -599 0
-430 431 599 0
430 -431 599 0
-430 -431 -599 0
432 433 -600 0
-432 433 600 0
432 -433 600 0
-432 -433 -600 0
434 435 -601 0
-434 435 601 0
434 -435 601 0
-434 -435 -601 0
436 437 -602 0
-436 437 602 0
436 -437 602 0
-436 -437 -602 0
438 439 -603 0
-438 439 603 0
438 -439 603 0
-438 -439 -603 0
440 441 -604 0
-440 441 604 0
440 -441 604 0
-440 -441 -604 0
442 443 -605 0
-442 443 605 0
442 -443 605 0
-442 -443 -605 0
444 445 -606 0
-444 445 606 0
444 -445 606 0
-444 -445 -606 0
446 447 -607 0
-446 447 607 0
446 -447 607 0
-446 -447 -607 0
448 449 -608 0
-448 449 608 0
448 -449 608 0
-448 -449 -608 0
450 451 -609 0
-450 451 609 0
450 -451 609 0
-450 -451 -609 0
452 453 -610 0
-452 453 610 0
452 -453 610 0
-452 -453 -610 0
454 455 -611 0
-454 455 611 0
454 -455 611 0
-454 -455 -611 0
456 457 -612 0
-456 457 612 0
456 -457 612 0
-456 -457 -612 0
458 459 -613 0
-458 459 613 0
458 -459 613 0
-458 -459 -613 0
460 461 -614 0
-460 461 614 0
460 -461 614 0
-460 -461 -614 0
462 463 -615 0
-462 463 615 0
462 -463 615 0
-462 -463 -615 0
464 465 -616 0
-464 465 616 0
464 -465 616 0
-464 -465 -616 0
466 467 -617 0
-466 467 617 0
466 -467 617 0
-466 -467 -617 0
468 469 -618 0
-468 469 618 0
468 -469 618 0
-468 -469 -618 0
470 471 -619 0
-470 471 619 0
470 -471 619 0
-470 -471 -619 0
472 473 -620 0
-472 473 620 0
472 -473 620 0
-472 -473 -620 0
474 475 -621 0
-474 475 621 0
474 -475 621 0
-474 -475 -621 0
476 477 -622 0
-476 477 622 0
476 -477 622 0
-476 -477 -622 0
478 479 -623 0
-478 479 623 0
478 -479 623 0
-478 -479 -623 0
480 481 -624 0
-480 481 624 0
480 -481 624 0
-480 -481 -624 0
482 483 -625 0
-482 483 625 0
482 -483 625 0
-482 -483 -625 0
484 485 -626 0
-484 485 626 0
484 -485 626 0
-484 -485 -626 0
486 487 -627 0
-486 487 627 0
486 -487 627 0
-486 -487 -627 0
488 489 -628 0
-488 489 628 0
488 -489 628 0
-488 -489 -628 0
490 491 -629 0
-490 491 629 0
490 -491 629 0
-490 -491 -629 0
492 493 -630 0
-492 493 630 0
492 -493 630 0
-492 -493 -630 0
494 495 -631 0
-494 495 631 0
494 -495 631 0
-494 -495 -631 0
496 497 -632 0
-496 497 632 0
496 -497 632 0
-496 -497 -632 0
498 499 -633 0
-498 499 633 0
498 -499 633 0
-498 -499 -633 0
500 501 -634 0
-500 501 634 0
500 -501 634 0
-500 -501 -634 0
502 503 -635 0
-502 503 635 0
502 -503 635 0
-502 -503 -635 0
504 505 -636 0
-504 505 636 0
504 -505 636 0
-504 -505 -636 0
506 507 -637 0
-506 507 637 0
506 -507 637 0
-506 -507 -637 0
508 509 -638 0
-508 509 638 0
508 -509 638 0
-508 -509 -638 0
510 511 -639 0
-510 511 639 0
510 -511 639 0
-510 -511 -639 0
512 513 -640 0
-512 513 640 0
512 -513 640 0
-512 -513 -640 0
514 515 -641 0
-514 515 641 0
514 -515 641 0
-514 -515 -641 0
516 517 -642 0
-516 517 642 0
516 -517 642 0
-516 -517 -642 0
518 519 -643 0
-518 519 643 0
518 -519 643 0
-518 -519 -643 0
520 521 -644 0
-520 521 644 0
520 -521 644 0
-520 -521 -644 0
522 523 -645 0
-522 523 645 0
522 -523 645 0
-522 -523 -645 0
524 525 -646 0
-524 525 646 0
524 -525 646 0
-524 -525 -646 0
526 527 -647 0
-526 527 647 0
526 -527 647 0
-526 -527 -647 0
528 529 -648 0
-528 529 648 0
528 -529 648 0
-528 -529 -648 0
530 531 -649 0
-530 531 649 0
530 -531 649 0
-530 -531 -649 0
532 533 -650 0
-532 533 650 0
532 -533 650 0
-532 -533 -650 0
534 535 -651 0
-534 535 651 0
534 -535 651 0
-534 -535 -651 0
536 537 -652 0
-536 537 652 0
536 -537 652 0
-536 -537 -652 0
538 539 -653 0
-538 539 653 0
538 -539 653 0
-538 -539 -653 0
540 541 -654 0
-540 541 654 0
540 -541 654 0
-540 -541 -654 0
542 543 -655 0
-542 543 655 0
542 -543 655 0
-542 -543 -655 0
544 545 -656 0
-544 545 656 0
544 -545 656 0
-544 -545 -656 0
546 547 -657 0
-546 547 657 0
546 -547 657 0
-546 -547 -657 0
548 549 -658 0
-548 549 658 0
548 -549 658 0
-548 -549 -658 0
550 551 -659 0
-550 551 659 0
550 -551 659 0
-550 -551 -659 0
552 553 -660 0
-552 553 660 0
552 -553 660 0
-552 -553 -660 0
554 555 -661 0
-554 555 661 0
554 -555 661 0
-554 -555 -661 0
556 557 -662 0
-556 557 662 0
556 -557 662 0
-556 -557 -662 0
558 559 -663 0
-558 559 663 0
558 -559 663 0
-558 -559 -663 0
560 561 -664 0
-560 561 664 0
560 -561 664 0
-560 -561 -664 0
562 563 -665 0
-562 563 665 0
562 -563 665 0
-562 -563 -665 0
564 565 -666 0
-564 565 666 0
564 -565 666 0
-564 -565 -666 0
566 567 -667 0
-566 567 667 0
566 -567 667 0
-566 -567 -667 0
568 569 -668 0
-568 569 668 0
568 -569 668 0
-568 -569 -668 0
570 571 -669 0
-570 571 669 0
570 -571 669 0
-570 -571 -669 0
572 573 -670 0
-572 573 670 0
572 -573 670 0
-572 -573 -670 0
574 575 -671 0
-574 575 671 0
574 -575 671 0
-574 -575 -671 0
577 578 -672 0
-577 578 672 0
577 -578 672 0
-577 -578 -672 0
579 580 -673 0
-579 580 673 0
579 -580 673 0
-579 -580 -673 0
581 582 -674 0
-581 582 674 0
581 -582 674 0
-581 -582 -674 0
583 584 -675 0
-583 584 675 0
583 -584 675 0
-583 -584 -675 0
585 586 -676 0
-585 586 676 0
585 -586 676 0
-585 -586 -676 0
587 588 -677 0
-587 588 677 0
587 -588 677 0
-587 -588 -677 0
589 590 -678 0
-589 590 678 0
589 -590 678 0
-589 -590 -678 0
591 592 -679 0
-591 592 679 0
591 -592 679 0
-591 -592 -679 0
593 594 -680 0
-593 594 680 0
593 -594 680 0
-593 -594 -680 0
595 596 -681 0
-595 596 681 0
595 -596 681 0
-595 -596 -681 0
597 598 -682 0
-597 598 682 0
597 -598 682 0
-597 -598 -682 0
599 600 -683 0
-599 600 683 0
599 -600 683 0
-599 -600 -683 0
601 602 -684 0
-601 602 684 0
601 -602 684 0
-601 -602 -684 0
603 604 -685 0
-603 604 685 0
603 -604 685 0
-603 -604 -685 0
605 606 -686 0
-605 606 686 0
605 -606 686 0
-605 -606 -686 0
607 608 -687 0
-607 608 687 0
607 -608 687 0
-607 -608 -687 0
609 610 -688 0
-609 610 688 0
609 -610 688 0
-609 -610 -688 0
611 612 -689 0
-611 612 689 0
611 -612 689 0
-611 -612 -689 0
613 614 -690 0
-613 614 690 0
613 -614 690 0
-613 -614 -690 0
615 616 -691 0
-615 616 691 0
615 -616 691 0
-615 -616 -691 0
617 618 -692 0
-617 618 692 0
617 -618 692 0
-617 -618 -692 0
619 620 -693 0
-619 620 693 0
619 -620 693 0
-619 -620 -693 0
621 622 -694 0
-621 622 694 0
621 -622 694 0
-621 -622 -694 0
623 624 -695 0
-623 624 695 0
623 -624 695 0
-623 -624 -695 0
625 626 -696 0
-625 626 696 0
625 -626 696 0
-625 -626 -696 0
627 628 -697 0
-627 628 697 0
627 -628 697 0
-627 -628 -697 0
629 630 -698 0
-629 630 698 0
629 -630 698 0
-629 -630 -698 0
631 632 -699 0
-631 632 699 0
631 -632 699 0
-631 -632 -699 0
633 634 -700 0
-633 634 700 0
633 -634 700 0
-633 -634 -700 0
635 636 -701 0
-635 636 701 0
635 -636 701 0
-635 -636 -701 0
637 638 -702 0
-637 638 702 0
637 -638 702 0
-637 -638 -702 0
639 640 -703 0
-639 640 703 0
639 -640 703 0
-639 -640 -703 0
641 642 -704 0
-641 642 704 0
641 -642 704 0
-641 -642 -704 0
643 644 -705 0
-643 644 705 0
643 -644 705 0
-643 -644 -705 0
645 646 -706 0
-645 646 706 0
645 -646 706 0
-645 -646 -706 0
647 648 -707 0
-647 648 707 0
647 -648 707 0
-647 -648 -707 0
649 650 -708 0
-649 650 708 0
649 -650 708 0
-649 -650 -708 0
651 652 -709 0
-651 652 709 0
651 -652 709 0
-651 -652 -709 0
653 654 -710 0
-653 654 710 0
653 -654 710 0
-653 -654 -710 0
655 656 -711 0
-655 656 711 0
655 -656 711 0
-655 -656 -711 0
657 658 -712 0
-657 658 712 0
657 -658 712 0
-657 -658 -712 0
659 660 -713 0
-659 660 713 0
659 -660 713 0
-659 -660 -713 0
661 662 -714 0
-661 662 714 0
661 -662 714 0
-661 -662 -714 0
663 664 -715 0
-663 664 715 0
663 -664 715 0
-663 -664 -715 0
665 666 -716 0
-665 666 716 0
665 -666 716 0
-665 -666 -716 0
667 668 -717 0
-667 668 717 0
667 -668 717 0
-667 -668 -717 0
669 670 -718 0
-669 670 718 0
669 -670 718 0
-669 -670 -718 0
671 576 -719 0
-671 576 719 0
671 -576 719 0
-671 -576 -719 0
672 673 -720 0
-672 673 720 0
672 -673 720 0
-672 -673 -720 0
674 675 -721 0
-674 675 721 0
674 -675 721 0
-674 -675 -721 0
676 677 -722 0
-676 677 722 0
676 -677 722 0
-676 -677 -722 0
678 679 -723 0
-678 679 723 0
678 -679 723 0
-678 -679 -723 0
680 681 -724 0
-680 681 724 0
680 -681 724 0
-680 -681 -724 0
682 683 -725 0
-682 683 725 0
682 -683 725 0
-682 -683 -725 0
684 685 -726 0
-684 685 726 0
684 -685 726 0
-684 -685 -726 0
686 687 -727 0
-686 687 727 0
686 -687 727 0
-686 -687 -727 0
688 689 -728 0
-688 689 728 0
688 -689 728 0
-688 -689 -728 0
690 691 -729 0
-690 691 729 0
690 -691 729 0
-690 -691 -729 0
692 693 -730 0
-692 693 730 0
692 -693 730 0
-692 -693 -730 0
694 695 -731 0
-694 695 731 0
694 -695 731 0
-694 -695 -731 0
696 697 -732 0
-696 697 732 0
696 -697 732 0
-696 -697 -732 0
698 699 -733 0
-698 699 733 0
698 -699 733 0
-698 -699 -733 0
700 701 -734 0
-700 701 734 0
700 -701 734 0
-700 -701 -734 0
702 703 -735 0
-702 703 735 0
702 -703 735 0
-702 -703 -735 0
704 705 -736 0
-704 705 736 0
704 -705 736 0
-704 -705 -736 0
706 707 -737 0
-706 707 737 0
706 -707 737 0
-706 -707 -737 0
708 709 -738 0
-708 709 738 0
708 -709 738 0
-708 -709 -738 0
710 711 -739 0
-710 711 739 0
710 -711 739 0
-710 -711 -739 0
712 713 -740 0
-712 713 740 0
712 -713 740 0
-712 -713 -740 0
714 715 -741 0
-714 715 741 0
714 -715 741 0
-714 -715 -741 0
716 717 -742 0
-716 717 742 0
716 -717 742 0
-716 -717 -742 0
718 719 -743 0
-718 719 743 0
718 -719 743 0
-718 -719 -743 0
720 721 -744 0
-720 721 744 0
720 -721 744 0
-720 -721 -744 0
722 723 -745 0
-722 723 745 0
722 -723 745 0
-722 -723 -745 0
724 725 -746 0
-724 725 746 0
724 -725 746 0
-724 -725 -746 0
726 727 -747 0
-726 727 747 0
726 -727 747 0
-726 -727 -747 0
728 729 -748 0
-728 729 748 0
728 -729 748 0
-728 -729 -748 0
730 731 -749 0
-730 731 749 0
730 -731 749 0
-730 -731 -749 0
732 733 -750 0
-732 733 750 0
732 -733 750 0
-732 -733 -750 0
734 735 -751 0
-734 735 751 0
734 -735 751 0
-734 -735 -751 0
736 737 -752 0
-736 737 752 0
736 -737 752 0
-736 -737 -752 0
738 739 -753 0
-738 739 753 0
738 -739 753 0
-738 -739 -753 0
740 741 -754 0
-740 741 754 0
740 -741 754 0
-740 -741 -754 0
742 743 -755 0
-742 743 755 0
742 -743 755 0
-742 -743 -755 0
744 745 -756 0
-744 745 756 0
744 -745 756 0
-744 -745 -756 0
746 747 -757 0
-746 747 757 0
746 -747 757 0
-746 -747 -757 0
748 749 -758 0
-748 749 758 0
748 -749 758 0
-748 -749 -758 0
750 751 -759 0
-750 751 759 0
750 -751 759 0
-750 -751 -759 0
752 753 -760 0
-752 753 760 0
752 -753 760 0
-752 -753 -760 0
754 755 -761 0
-754 755 761 0
754 -755 761 0
-754 -755 -761 0
756 757 -762 0
-756 757 762 0
756 -757 762 0
-756 -757 -762 0
758 759 -763 0
-758 759 763 0
758 -759 763 0
-758 -759 -763 0
760 761 -764 0
-760 761 764 0
760 -761 764 0
-760 -761 -764 0
762 763 -765 0
-762 763 765 0
762 -763 765 0
-762 -763 -765 0
765 764 -383 0
-765 764 383 0
765 -764 383 0
-765 -764 -383 0
